\* Problem: consistency *\

Minimize
 obj: + c

Subject To
 r_1: - c + 0.603033833528997 w2 + 0.467060430980386 w1 <= -0.002
 r_2: - c + 0.482478589375155 w2 + 0.133828995089186 w1 <= -0.002
 r_3: - c + 0.502418860135627 w2 + 0.801230353207156 w1 >= 0.001
 r_4: - c + 0.819873021974445 w2 + 0.408501406657169 w1 >= 0.001
 r_5: - c + 0.442034916472025 w2 + 0.104238182667434 w1 <= -0.002

Bounds
 w1 free
 w2 free
 c free

End
